p cnf 22 8
a 1 0
e 2 3 4 5 0
a 6 0
e 7 0
a 8 0
e 9 0
a 10 0
e 11 12 0
a 13 14 15 16 17 18 0
e 19 20 21 0
a 22 0
19 -8 22 0
14 13 21 3 0
-2 -14 -3 15 -22 0
16 7 19 0
11 -16 6 5 22 0
-18 13 -9 -16 12 0
-8 -21 1 -15 22 0
-7 8 -9 -15 0
